&CONTROL
  calculation = 'scf'
  etot_conv_thr =   4.2000000000d-04
  forc_conv_thr =   1.0000000000d-04
  outdir = './out'
  prefix = 'ncso'
  pseudo_dir = '/projects/p31387/PP/PBEsol_NC_SR/'
  tprnfor = .true.
  tstress = .true.
  verbosity = 'high'
  wf_collect=.true.
/
&SYSTEM
  degauss =   1.0000000000d-03
  ecutrho = 400
  ecutwfc = 100
  ibrav = 0
  nat = 42
  nosym = .false.
  nspin = 1
  nbnd = 500
  ntyp = 4
  occupations = 'smearing'
  smearing = 'cold'
  force_symmorphic=.true.
/
&ELECTRONS
  conv_thr =  1d-06
  electron_maxstep = 200
  mixing_beta =   2.0000000000d-01
  diago_thr_init=5.0e-6
  diago_full_acc=.true.
/
ATOMIC_SPECIES
Co     58.933195 Co.upf
Na     22.990 Na.upf
O      15.9994 O.upf
Se     78.96 Se.upf
ATOMIC_POSITIONS crystal
Se           0.0938000000       0.8275000000       0.7367400000 
Se           0.9062000000       0.3275000000       0.7632600000 
Se           0.9062000000       0.1725000000       0.2632600000 
Se           0.0938000000       0.6725000000       0.2367400000 
Se           0.3261900000       0.1836000000       0.6214300000 
Se           0.6738100000       0.6836000000       0.8785700000 
Se           0.6738100000       0.8164000000       0.3785700000 
Se           0.3261900000       0.3164000000       0.1214300000 
Co           0.5000000000       0.0000000000       0.0000000000 
Co           0.5000000000       0.5000000000       0.5000000000 
Co           0.2104500000       0.5093100000       0.6760800000 
Co           0.7895500000       0.0093100000       0.8239200000 
Co           0.7895500000       0.4906900000       0.3239200000 
Co           0.2104500000       0.9906900000       0.1760800000 
O            0.2837600000       0.9178600000       0.7621700000 
O            0.7162400000       0.4178600000       0.7378300000 
O            0.7162400000       0.0821400000       0.2378300000 
O            0.2837600000       0.5821400000       0.2621700000 
O            0.1764700000       0.6646000000       0.8381700000 
O            0.8235300000       0.1646000000       0.6618300000 
O            0.8235300000       0.3354000000       0.1618300000 
O            0.1764700000       0.8354000000       0.3381700000 
O            0.0423600000       0.9013300000       0.9082100000 
O            0.9576400000       0.4013300000       0.5917900000 
O            0.9576400000       0.0986700000       0.0917900000 
O            0.0423600000       0.5986700000       0.4082100000 
O            0.3383400000       0.3652700000       0.5772200000 
O            0.6616600000       0.8652700000       0.9227800000 
O            0.6616600000       0.6347300000       0.4227800000 
O            0.3383400000       0.1347300000       0.0772200000 
O            0.5363800000       0.1495800000       0.8096900000 
O            0.4636200000       0.6495800000       0.6903100000 
O            0.4636200000       0.8504200000       0.1903100000 
O            0.5363800000       0.3504200000       0.3096900000 
O            0.3590500000       0.1065900000       0.4432700000 
O            0.6409500000       0.6065900000       0.0567300000 
O            0.6409500000       0.8934100000       0.5567300000 
O            0.3590500000       0.3934100000       0.9432700000 
Na           0.3978000000       0.6415000000       0.0809000000 
Na           0.6022000000       0.1415000000       0.4191000000 
Na           0.6022000000       0.3585000000       0.9191000000 
Na           0.3978000000       0.8585000000       0.5809000000 
K_POINTS automatic
6 6 6 0 0 0
CELL_PARAMETERS angstrom
      8.0787000000       0.0000000000       0.0000000000
      0.0000000000       9.2356000000       0.0000000000
     -3.3835950436       0.0000000000       7.0033572657
