&CONTROL
  calculation = 'nscf'
  etot_conv_thr =   4.2000000000d-04
  forc_conv_thr =   1.0000000000d-04
  outdir = './out'
  prefix = 'lcso'
  pseudo_dir = '/projects/p31387/PP/PBEsol_NC_SR/'
  tprnfor = .true.
  tstress = .true.
  verbosity = 'high'
  wf_collect=.true.
/
&SYSTEM
  degauss =   1.0000000000d-03
  ecutrho =   400
  ecutwfc =   100
  ibrav = 0
  nat = 138
  nosym = .false.
  nspin = 1
  ntyp = 4
  occupations = 'smearing'
  smearing = 'cold'
  force_symmorphic=.true.
/
&ELECTRONS
  conv_thr =  3d-08
  electron_maxstep = 200
  mixing_beta =   2.0000000000d-01
  diago_thr_init=5.0e-6
  diago_full_acc=.true.
/
ATOMIC_SPECIES
Co     58.933195 Co.upf
Li     6.941 Li.upf
O      15.9994 O.upf
Se     78.96 Se.upf
ATOMIC_POSITIONS crystal
Se           0.6666670000       0.3333330000       0.6082300000 
Se           0.3333336667       0.6666663333       0.9415633333 
Se           0.0000003333       0.9999996667       0.2748966667 
Se           0.3333330000       0.6666670000       0.3917700000 
Se           0.9999996667       0.0000003333       0.7251033333 
Se           0.6666663333       0.3333336667       0.0584366667 
Se           0.6178700000       0.8220100000       0.5522000000 
Se           0.1779900000       0.7958600000       0.5522000000 
Se           0.2041400000       0.3821300000       0.5522000000 
Se           0.2845366667       0.1553433333       0.8855333333 
Se           0.8446566667       0.1291933333       0.8855333333 
Se           0.8708066667       0.7154633333       0.8855333333 
Se           0.9512033333       0.4886766667       0.2188666667 
Se           0.5113233333       0.4625266667       0.2188666667 
Se           0.5374733333       0.0487966667       0.2188666667 
Se           0.3821300000       0.1779900000       0.4478000000 
Se           0.8220100000       0.2041400000       0.4478000000 
Se           0.7958600000       0.6178700000       0.4478000000 
Se           0.0487966667       0.5113233333       0.7811333333 
Se           0.4886766667       0.5374733333       0.7811333333 
Se           0.4625266667       0.9512033333       0.7811333333 
Se           0.7154633333       0.8446566667       0.1144666667 
Se           0.1553433333       0.8708066667       0.1144666667 
Se           0.1291933333       0.2845366667       0.1144666667 
Co           0.0000000000       0.0000000000       0.5000000000 
Co           0.6666666667       0.3333333333       0.8333333333 
Co           0.3333333333       0.6666666667       0.1666666667 
Co           0.3333330000       0.6666670000       0.6666670000 
Co           0.9999996667       0.0000003333       0.0000003333 
Co           0.6666663333       0.3333336667       0.3333336667 
O            0.5420800000       0.7140800000       0.6189700000 
O            0.2859200000       0.8280000000       0.6189700000 
O            0.1720000000       0.4579200000       0.6189700000 
O            0.2087466667       0.0474133333       0.9523033333 
O            0.9525866667       0.1613333333       0.9523033333 
O            0.8386666667       0.7912533333       0.9523033333 
O            0.8754133333       0.3807466667       0.2856366667 
O            0.6192533333       0.4946666667       0.2856366667 
O            0.5053333333       0.1245866667       0.2856366667 
O            0.4579200000       0.2859200000       0.3810300000 
O            0.7140800000       0.1720000000       0.3810300000 
O            0.8280000000       0.5420800000       0.3810300000 
O            0.1245866667       0.6192533333       0.7143633333 
O            0.3807466667       0.5053333333       0.7143633333 
O            0.4946666667       0.8754133333       0.7143633333 
O            0.7912533333       0.9525866667       0.0476966667 
O            0.0474133333       0.8386666667       0.0476966667 
O            0.1613333333       0.2087466667       0.0476966667 
O            0.6985500000       0.5052500000       0.6424400000 
O            0.4947500000       0.1933000000       0.6424400000 
O            0.8067000000       0.3014500000       0.6424400000 
O            0.3652166667       0.8385833333       0.9757733333 
O            0.1614166667       0.5266333333       0.9757733333 
O            0.4733666667       0.6347833333       0.9757733333 
O            0.0318833333       0.1719166667       0.3091066667 
O            0.8280833333       0.8599666667       0.3091066667 
O            0.1400333333       0.9681166667       0.3091066667 
O            0.3014500000       0.4947500000       0.3575600000 
O            0.5052500000       0.8067000000       0.3575600000 
O            0.1933000000       0.6985500000       0.3575600000 
O            0.9681166667       0.8280833333       0.6908933333 
O            0.1719166667       0.1400333333       0.6908933333 
O            0.8599666667       0.0318833333       0.6908933333 
O            0.6347833333       0.1614166667       0.0242266667 
O            0.8385833333       0.4733666667       0.0242266667 
O            0.5266333333       0.3652166667       0.0242266667 
O            0.6497200000       0.0016700000       0.5753600000 
O            0.9983300000       0.6480500000       0.5753600000 
O            0.3519500000       0.3502800000       0.5753600000 
O            0.3163866667       0.3350033333       0.9086933333 
O            0.6649966667       0.9813833333       0.9086933333 
O            0.0186166667       0.6836133333       0.9086933333 
O            0.9830533333       0.6683366667       0.2420266667 
O            0.3316633333       0.3147166667       0.2420266667 
O            0.6852833333       0.0169466667       0.2420266667 
O            0.3502800000       0.9983300000       0.4246400000 
O            0.0016700000       0.3519500000       0.4246400000 
O            0.6480500000       0.6497200000       0.4246400000 
O            0.0169466667       0.3316633333       0.7579733333 
O            0.6683366667       0.6852833333       0.7579733333 
O            0.3147166667       0.9830533333       0.7579733333 
O            0.6836133333       0.6649966667       0.0913066667 
O            0.3350033333       0.0186166667       0.0913066667 
O            0.9813833333       0.3163866667       0.0913066667 
O            0.8027900000       0.8422300000       0.5547800000 
O            0.1577700000       0.9605600000       0.5547800000 
O            0.0394400000       0.1972100000       0.5547800000 
O            0.4694566667       0.1755633333       0.8881133333 
O            0.8244366667       0.2938933333       0.8881133333 
O            0.7061066667       0.5305433333       0.8881133333 
O            0.1361233333       0.5088966667       0.2214466667 
O            0.4911033333       0.6272266667       0.2214466667 
O            0.3727733333       0.8638766667       0.2214466667 
O            0.1972100000       0.1577700000       0.4452200000 
O            0.8422300000       0.0394400000       0.4452200000 
O            0.9605600000       0.8027900000       0.4452200000 
O            0.8638766667       0.4911033333       0.7785533333 
O            0.5088966667       0.3727733333       0.7785533333 
O            0.6272266667       0.1361233333       0.7785533333 
O            0.5305433333       0.8244366667       0.1118866667 
O            0.1755633333       0.7061066667       0.1118866667 
O            0.2938933333       0.4694566667       0.1118866667 
Li           0.8663000000       0.7276000000       0.6096200000 
Li           0.2724000000       0.1387000000       0.6096200000 
Li           0.8613000000       0.1337000000       0.6096200000 
Li           0.5329666667       0.0609333333       0.9429533333 
Li           0.9390666667       0.4720333333       0.9429533333 
Li           0.5279666667       0.4670333333       0.9429533333 
Li           0.1996333333       0.3942666667       0.2762866667 
Li           0.6057333333       0.8053666667       0.2762866667 
Li           0.1946333333       0.8003666667       0.2762866667 
Li           0.1337000000       0.2724000000       0.3903800000 
Li           0.7276000000       0.8613000000       0.3903800000 
Li           0.1387000000       0.8663000000       0.3903800000 
Li           0.8003666667       0.6057333333       0.7237133333 
Li           0.3942666667       0.1946333333       0.7237133333 
Li           0.8053666667       0.1996333333       0.7237133333 
Li           0.4670333333       0.9390666667       0.0570466667 
Li           0.0609333333       0.5279666667       0.0570466667 
Li           0.4720333333       0.5329666667       0.0570466667 
Li           0.4960000000       0.5005000000       0.6366300000 
Li           0.4995000000       0.9955000000       0.6366300000 
Li           0.0045000000       0.5040000000       0.6366300000 
Li           0.1626666667       0.8338333333       0.9699633333 
Li           0.1661666667       0.3288333333       0.9699633333 
Li           0.6711666667       0.8373333333       0.9699633333 
Li           0.8293333333       0.1671666667       0.3032966667 
Li           0.8328333333       0.6621666667       0.3032966667 
Li           0.3378333333       0.1706666667       0.3032966667 
Li           0.5040000000       0.4995000000       0.3633700000 
Li           0.5005000000       0.0045000000       0.3633700000 
Li           0.9955000000       0.4960000000       0.3633700000 
Li           0.1706666667       0.8328333333       0.6967033333 
Li           0.1671666667       0.3378333333       0.6967033333 
Li           0.6621666667       0.8293333333       0.6967033333 
Li           0.8373333333       0.1661666667       0.0300366667 
Li           0.8338333333       0.6711666667       0.0300366667 
Li           0.3288333333       0.1626666667       0.0300366667 
K_POINTS automatic
6 6 6 0 0 0
CELL_PARAMETERS angstrom
      9.6477000000       0.0000000000       0.0000000000
     -4.8238500000       8.3551532881       0.0000000000
      0.0000000000       0.0000000000      21.7524000000